(set-logic QF_S)
(declare-fun var0 () String)
(declare-fun var1 () String)
(declare-fun var2 () String)
(declare-fun var3 () String)
(declare-fun var4 () String)
(declare-fun var5 () String)
(declare-fun var6 () String)
(declare-fun var7 () String)
(declare-fun var8 () String)
(declare-fun var9 () String)
(declare-fun var10 () String)
(declare-fun var11 () String)
(declare-fun var12 () String)
(declare-fun var13 () String)
(declare-fun var14 () String)
(declare-fun var15 () String)
(declare-fun var16 () String)
(declare-fun var17 () String)
(declare-fun var18 () String)
(declare-fun var19 () String)
(declare-fun var20 () String)
(declare-fun var21 () String)
(declare-fun var22 () String)
(declare-fun var23 () String)
(declare-fun var24 () String)
(declare-fun var25 () String)
(declare-fun var26 () String)
(declare-fun var27 () String)
(declare-fun var28 () String)
(declare-fun var29 () String)
(declare-fun var30 () String)
(declare-fun var31 () String)
(declare-fun var32 () String)
(declare-fun var33 () String)
(declare-fun var34 () String)
(declare-fun var35 () String)
(declare-fun var36 () String)
(declare-fun var37 () String)
(declare-fun var38 () String)
(declare-fun var39 () String)
(declare-fun var40 () String)
(declare-fun var41 () String)
(declare-fun var42 () String)
(declare-fun var43 () String)
(declare-fun var44 () String)
(declare-fun var45 () String)
(declare-fun var46 () String)
(declare-fun var47 () String)
(declare-fun var48 () String)
(declare-fun var49 () String)
(declare-fun var50 () String)
(declare-fun var51 () String)
(declare-fun var52 () String)
(declare-fun var53 () String)
(declare-fun var54 () String)
(declare-fun var55 () String)
(declare-fun var56 () String)
(declare-fun var57 () String)
(declare-fun var58 () String)
(declare-fun var59 () String)
(declare-fun var60 () String)
(assert (= var0 (str.++ var1 var2)))
(assert (= var2 (str.++ var3 var4)))
(assert (= var4 (str.++ var5 var6)))
(assert (= var6 (str.++ var7 var8)))
(assert (= var8 (str.++ var9 var10)))
(assert (= var10 (str.++ var11 var12)))
(assert (= var12 (str.++ var13 var14)))
(assert (= var14 (str.++ var15 var16)))
(assert (= var16 (str.++ var17 var18)))
(assert (= var18 (str.++ var19 var20)))
(assert (= var20 (str.++ var21 var22)))
(assert (= var22 (str.++ var23 var24)))
(assert (= var24 (str.++ var25 var26)))
(assert (= var26 (str.++ var27 var28)))
(assert (= var28 (str.++ var29 var30)))
(assert (= var30 (str.++ var31 var32)))
(assert (= var32 (str.++ var33 var34)))
(assert (= var34 (str.++ var35 var36)))
(assert (= var36 (str.++ var37 var38)))
(assert (= var38 (str.++ var39 var40)))
(assert (= var40 (str.++ var41 var42)))
(assert (= var42 (str.++ var43 var44)))
(assert (= var44 (str.++ var45 var46)))
(assert (= var46 (str.++ var47 var48)))
(assert (= var48 (str.++ var49 var50)))
(assert (= var50 (str.++ var51 var52)))
(assert (= var52 (str.++ var53 var54)))
(assert (= var54 (str.++ var55 var56)))
(assert (= var56 (str.++ var57 var58)))
(assert (= var58 (str.++ var59 var60)))
(assert (= var0 "solution"))
(assert (= "H" (str.at var46 728)))
(assert (= "/" (str.at var32 574)))
(assert (= "Z" (str.at var31 274)))
(assert (= "v" (str.at var42 732)))
(assert (= ":" (str.at var31 387)))
(assert (= "k" (str.at var23 350)))
(assert (= "W" (str.at var39 239)))
(assert (= "Y" (str.at var24 922)))
(assert (= "D" (str.at var5 433)))
(assert (= "'" (str.at var27 196)))
(assert (= "(" (str.at var14 879)))
(assert (= "@" (str.at var4 878)))
(assert (= "i" (str.at var29 474)))
(assert (= ">" (str.at var47 549)))
(assert (= "!" (str.at var13 971)))
(assert (= "z" (str.at var50 111)))
(assert (= "q" (str.at var30 539)))
(assert (= "{" (str.at var50 767)))
(assert (= "g" (str.at var27 355)))
(assert (= "n" (str.at var1 576)))
(assert (= "m" (str.at var11 952)))
(assert (= "M" (str.at var17 860)))
(assert (= "q" (str.at var7 387)))
(assert (= "?" (str.at var21 350)))
(assert (= "!" (str.at var4 496)))
(assert (= "j" (str.at var55 826)))
(assert (= "!" (str.at var38 37)))
(assert (= "_" (str.at var4 860)))
(assert (= "p" (str.at var7 24)))
(assert (= "m" (str.at var6 597)))
(assert (= "z" (str.at var51 177)))
(assert (= "<" (str.at var35 202)))
(assert (= "=" (str.at var6 173)))
(assert (= "[" (str.at var60 924)))
(assert (= "Q" (str.at var31 302)))
(assert (= "n" (str.at var51 787)))
(assert (= "Y" (str.at var37 522)))
(assert (= "9" (str.at var4 884)))
(assert (= "D" (str.at var40 650)))
(assert (= "w" (str.at var45 782)))
(assert (= "I" (str.at var48 596)))
(assert (= ">" (str.at var10 391)))
(assert (= "E" (str.at var57 826)))
(assert (= "k" (str.at var27 226)))
(assert (= "f" (str.at var54 993)))
(assert (= "o" (str.at var41 74)))
(assert (= "8" (str.at var15 459)))
(assert (= "/" (str.at var52 728)))
(assert (= "q" (str.at var17 626)))
(assert (= "A" (str.at var51 749)))
(assert (= "t" (str.at var59 393)))
(assert (= "A" (str.at var26 124)))
(assert (= "-" (str.at var2 533)))
(assert (= "q" (str.at var47 585)))
(assert (= "j" (str.at var39 595)))
(assert (= "\\" (str.at var28 436)))
(assert (= "E" (str.at var54 776)))
(assert (= "4" (str.at var27 227)))
(assert (= "9" (str.at var47 301)))
(assert (= "M" (str.at var4 950)))
(assert (= "~" (str.at var47 173)))
(assert (= "r" (str.at var58 828)))
(assert (= "p" (str.at var12 521)))
(assert (= "Q" (str.at var40 605)))
(assert (= "k" (str.at var7 804)))
(assert (= "&" (str.at var43 818)))
(assert (= "#" (str.at var3 544)))
(assert (= "M" (str.at var19 208)))
(assert (= ";" (str.at var10 568)))
(assert (= "g" (str.at var50 402)))
(assert (= "B" (str.at var19 428)))
(assert (= "$" (str.at var47 459)))
(assert (= "z" (str.at var6 431)))
(assert (= "g" (str.at var29 150)))
(assert (= "j" (str.at var27 992)))
(assert (= "M" (str.at var59 172)))
(assert (= ")" (str.at var20 773)))
(assert (= "." (str.at var60 724)))
(assert (= "B" (str.at var46 416)))
(assert (= "j" (str.at var21 944)))
(assert (= "`" (str.at var4 237)))
(assert (= "`" (str.at var55 504)))
(assert (= "Z" (str.at var31 956)))
(assert (= "|" (str.at var37 517)))
(assert (= "P" (str.at var4 220)))
(assert (= "N" (str.at var58 405)))
(assert (= "U" (str.at var53 545)))
(assert (= "L" (str.at var48 732)))
(assert (= "b" (str.at var29 922)))
(assert (= "a" (str.at var32 416)))
(assert (= "8" (str.at var53 298)))
(assert (= "b" (str.at var3 609)))
(assert (= "&" (str.at var15 921)))
(assert (= "Z" (str.at var3 914)))
(assert (= ">" (str.at var2 833)))
(assert (= "`" (str.at var13 548)))
(assert (= "&" (str.at var28 279)))
(assert (= "p" (str.at var9 723)))
(assert (= "X" (str.at var30 165)))
(assert (= "E" (str.at var3 415)))
(assert (= ";" (str.at var5 974)))
(assert (= "G" (str.at var15 340)))
(assert (= "I" (str.at var39 650)))
(assert (= "x" (str.at var49 84)))
(assert (= """" (str.at var57 744)))
(assert (= "y" (str.at var26 759)))
(assert (= "W" (str.at var28 299)))
(assert (= "%" (str.at var59 404)))
(assert (= "L" (str.at var51 178)))
(assert (= "|" (str.at var22 119)))
(assert (= "B" (str.at var18 418)))
(assert (= "8" (str.at var0 895)))
(assert (= "H" (str.at var52 283)))
(assert (= "n" (str.at var16 688)))
(assert (= "5" (str.at var56 36)))
(assert (= "L" (str.at var60 485)))
(assert (= "t" (str.at var38 266)))
(assert (= "R" (str.at var3 755)))
(assert (= "b" (str.at var9 566)))
(assert (= "9" (str.at var55 39)))
(assert (= ")" (str.at var42 474)))
(assert (= "w" (str.at var2 202)))
(assert (= "a" (str.at var57 698)))
(assert (= "|" (str.at var14 475)))
(assert (= "." (str.at var1 737)))
(assert (= "A" (str.at var47 909)))
(assert (= ":" (str.at var41 25)))
(assert (= "l" (str.at var49 717)))
(assert (= "9" (str.at var0 290)))
(assert (= "`" (str.at var32 85)))
(assert (= "N" (str.at var44 374)))
(assert (= "P" (str.at var56 581)))
(assert (= "u" (str.at var43 945)))
(assert (= "S" (str.at var27 163)))
(assert (= "J" (str.at var57 931)))
(assert (= "!" (str.at var6 714)))
(assert (= "b" (str.at var3 571)))
(assert (= "i" (str.at var54 872)))
(assert (= "~" (str.at var2 704)))
(assert (= "t" (str.at var51 209)))
(assert (= "V" (str.at var4 26)))
(assert (= "A" (str.at var26 67)))
(assert (= "0" (str.at var22 697)))
(assert (= "E" (str.at var18 48)))
(assert (= "." (str.at var43 425)))
(assert (= "g" (str.at var41 841)))
(assert (= ":" (str.at var51 980)))
(assert (= "S" (str.at var43 141)))
(assert (= "H" (str.at var58 169)))
(assert (= ")" (str.at var3 567)))
(assert (= "0" (str.at var38 395)))
(assert (= "-" (str.at var24 5)))
(assert (= "/" (str.at var45 12)))
(assert (= "'" (str.at var12 396)))
(assert (= ")" (str.at var59 620)))
(assert (= ")" (str.at var13 322)))
(assert (= "9" (str.at var13 899)))
(assert (= "P" (str.at var13 791)))
(assert (= "A" (str.at var47 370)))
(assert (= "l" (str.at var15 356)))
(assert (= "5" (str.at var2 998)))
(assert (= "]" (str.at var32 623)))
(assert (= "v" (str.at var43 234)))
(assert (= "Z" (str.at var27 69)))
(assert (= "a" (str.at var29 289)))
(assert (= "z" (str.at var47 539)))
(assert (= "&" (str.at var21 302)))
(assert (= "5" (str.at var15 174)))
(assert (= "E" (str.at var23 375)))
(assert (= "A" (str.at var22 624)))
(assert (= "?" (str.at var55 149)))
(assert (= "^" (str.at var48 86)))
(assert (= "y" (str.at var50 133)))
(assert (= "*" (str.at var46 386)))
(assert (= "{" (str.at var42 21)))
(assert (= "W" (str.at var38 949)))
(assert (= "K" (str.at var19 994)))
(assert (= "E" (str.at var36 580)))
(assert (= "k" (str.at var4 945)))
(assert (= "s" (str.at var24 917)))
(assert (= "G" (str.at var43 339)))
(assert (= "@" (str.at var11 502)))
(assert (= "^" (str.at var51 245)))
(assert (= "5" (str.at var43 217)))
(assert (= "2" (str.at var22 343)))
(assert (= "0" (str.at var40 522)))
(assert (= "C" (str.at var53 991)))
(assert (= "}" (str.at var52 231)))
(assert (= "(" (str.at var22 424)))
(assert (= "$" (str.at var33 199)))
(assert (= "6" (str.at var46 135)))
(assert (= "O" (str.at var49 815)))
(assert (= "m" (str.at var50 469)))
(assert (= "(" (str.at var51 263)))
(assert (= "@" (str.at var6 430)))
(assert (= "!" (str.at var36 707)))
(assert (= """" (str.at var22 632)))
(assert (= "V" (str.at var31 834)))
(assert (= "Y" (str.at var20 172)))
(assert (= "a" (str.at var11 310)))
(assert (= "F" (str.at var5 880)))
(assert (= "F" (str.at var46 213)))
(assert (= "i" (str.at var53 867)))
(assert (= "d" (str.at var53 204)))
(assert (= "L" (str.at var17 806)))
(assert (= "7" (str.at var53 753)))
(assert (= "T" (str.at var25 706)))
(assert (= "p" (str.at var53 124)))
(assert (= "(" (str.at var15 848)))
(assert (= "|" (str.at var30 362)))
(assert (= "4" (str.at var47 671)))
(assert (= "-" (str.at var54 858)))
(assert (= "_" (str.at var31 717)))
(assert (= "N" (str.at var9 322)))
(assert (= "3" (str.at var9 27)))
(assert (= "8" (str.at var2 839)))
(assert (= "|" (str.at var8 27)))
(assert (= """" (str.at var7 349)))
(assert (= "Y" (str.at var32 336)))
(assert (= "M" (str.at var13 865)))
(assert (= "?" (str.at var40 112)))
(assert (= "t" (str.at var25 738)))
(assert (= "Y" (str.at var53 412)))
(assert (= "g" (str.at var28 417)))
(assert (= "$" (str.at var11 634)))
(assert (= "r" (str.at var20 534)))
(assert (= "," (str.at var21 647)))
(assert (= "J" (str.at var57 283)))
(assert (= "U" (str.at var18 816)))
(assert (= "m" (str.at var45 300)))
(assert (= "u" (str.at var47 62)))
(assert (= "'" (str.at var6 929)))
(assert (= "g" (str.at var27 699)))
(assert (= "(" (str.at var30 953)))
(assert (= "i" (str.at var50 796)))
(assert (= "W" (str.at var29 478)))
(assert (= "?" (str.at var1 630)))
(assert (= "}" (str.at var14 449)))
(assert (= "3" (str.at var25 184)))
(assert (= "_" (str.at var16 936)))
(assert (= ">" (str.at var5 849)))
(assert (= "{" (str.at var16 562)))
(assert (= "O" (str.at var5 750)))
(assert (= "M" (str.at var22 118)))
(assert (= "6" (str.at var26 223)))
(assert (= "+" (str.at var8 115)))
(assert (= "z" (str.at var18 246)))
(assert (= "<" (str.at var37 719)))
(assert (= "Y" (str.at var13 909)))
(assert (= "=" (str.at var0 70)))
(assert (= "2" (str.at var9 589)))
(assert (= "6" (str.at var6 531)))
(assert (= "D" (str.at var2 408)))
(assert (= "Q" (str.at var9 920)))
(assert (= "$" (str.at var56 870)))
(assert (= "n" (str.at var13 620)))
(assert (= ";" (str.at var1 834)))
(assert (= ";" (str.at var57 366)))
(assert (= "l" (str.at var17 874)))
(assert (= "!" (str.at var52 100)))
(assert (= "o" (str.at var28 247)))
(assert (= "j" (str.at var1 14)))
(assert (= "a" (str.at var56 164)))
(assert (= "T" (str.at var19 715)))
(assert (= "E" (str.at var22 901)))
(assert (= "G" (str.at var38 95)))
(assert (= "+" (str.at var28 826)))
(assert (= "F" (str.at var36 59)))
(assert (= ";" (str.at var33 172)))
(assert (= "}" (str.at var54 945)))
(assert (= "?" (str.at var26 340)))
(assert (= "F" (str.at var45 915)))
(assert (= "F" (str.at var42 185)))
(assert (= "}" (str.at var41 992)))
(assert (= ":" (str.at var24 655)))
(assert (= ")" (str.at var11 965)))
(assert (= "i" (str.at var1 966)))
(assert (= "5" (str.at var37 918)))
(assert (= """" (str.at var34 782)))
(assert (= "J" (str.at var56 821)))
(assert (= "<" (str.at var39 861)))
(assert (= "[" (str.at var16 722)))
(assert (= "6" (str.at var25 648)))
(assert (= "\\" (str.at var22 56)))
(assert (= "P" (str.at var51 684)))
(assert (= "<" (str.at var36 705)))
(assert (= "J" (str.at var24 809)))
(assert (= "z" (str.at var10 948)))
(assert (= "8" (str.at var12 552)))
(assert (= "T" (str.at var8 634)))
(assert (= "G" (str.at var35 766)))
(assert (= "O" (str.at var34 631)))
(assert (= "!" (str.at var10 79)))
(assert (= "\\" (str.at var22 99)))
(assert (= "A" (str.at var45 983)))
(assert (= "N" (str.at var39 766)))
(assert (= "," (str.at var30 505)))
(assert (= ")" (str.at var7 376)))
(assert (= "K" (str.at var28 256)))
(assert (= "I" (str.at var43 479)))
(assert (= "@" (str.at var1 198)))
(assert (= "I" (str.at var15 864)))
(assert (= "d" (str.at var52 257)))
(assert (= "l" (str.at var40 10)))
(assert (= "'" (str.at var15 416)))
(assert (= "2" (str.at var56 354)))
(assert (= "9" (str.at var36 396)))
(assert (= "9" (str.at var29 27)))
(assert (= "|" (str.at var9 954)))
(assert (= "N" (str.at var6 516)))
(assert (= "p" (str.at var19 648)))
(assert (= "w" (str.at var10 283)))
(assert (= "_" (str.at var18 445)))
(assert (= "z" (str.at var26 54)))
(assert (= "g" (str.at var1 626)))
(assert (= "d" (str.at var44 556)))
(assert (= "." (str.at var19 122)))
(assert (= "R" (str.at var26 527)))
(assert (= "x" (str.at var4 603)))
(assert (= "9" (str.at var54 670)))
(assert (= "Z" (str.at var33 406)))
(assert (= "i" (str.at var36 410)))
(assert (= "z" (str.at var53 897)))
(assert (= "G" (str.at var0 371)))
(assert (= "w" (str.at var23 438)))
(assert (= "a" (str.at var37 176)))
(assert (= "O" (str.at var17 648)))
(assert (= "@" (str.at var57 213)))
(assert (= "!" (str.at var11 141)))
(assert (= "%" (str.at var34 657)))
(assert (= "P" (str.at var7 499)))
(assert (= "1" (str.at var32 123)))
(assert (= "L" (str.at var57 308)))
(assert (= "~" (str.at var60 468)))
(assert (= "8" (str.at var42 575)))
(assert (= "b" (str.at var14 571)))
(assert (= "3" (str.at var25 377)))
(assert (= "5" (str.at var58 391)))
(assert (= "R" (str.at var5 365)))
(assert (= "y" (str.at var36 506)))
(assert (= "c" (str.at var43 812)))
(assert (= "T" (str.at var22 53)))
(assert (= "," (str.at var31 298)))
(assert (= "7" (str.at var10 451)))
(assert (= "n" (str.at var2 475)))
(assert (= "@" (str.at var29 618)))
(assert (= "." (str.at var21 599)))
(assert (= "!" (str.at var54 979)))
(assert (= "7" (str.at var13 337)))
(assert (= "{" (str.at var28 355)))
(assert (= "t" (str.at var3 70)))
(assert (= "`" (str.at var18 457)))
(assert (= "6" (str.at var42 843)))
(assert (= "F" (str.at var2 79)))
(assert (= "8" (str.at var47 553)))
(assert (= "h" (str.at var28 701)))
(assert (= "5" (str.at var40 714)))
(assert (= "X" (str.at var35 178)))
(assert (= "4" (str.at var20 4)))
(assert (= "*" (str.at var38 810)))
(assert (= "5" (str.at var12 465)))
(assert (= "h" (str.at var2 868)))
(assert (= "|" (str.at var44 864)))
(assert (= "z" (str.at var40 365)))
(assert (= "[" (str.at var48 17)))
(assert (= "5" (str.at var13 748)))
(assert (= "S" (str.at var30 74)))
(assert (= "f" (str.at var18 402)))
(assert (= "w" (str.at var46 366)))
(assert (= "&" (str.at var43 159)))
(assert (= "D" (str.at var53 351)))
(assert (= "V" (str.at var37 269)))
(assert (= "1" (str.at var56 314)))
(assert (= "V" (str.at var53 449)))
(assert (= "#" (str.at var15 871)))
(assert (= "i" (str.at var29 522)))
(assert (= "w" (str.at var58 667)))
(assert (= "p" (str.at var41 932)))
(assert (= "k" (str.at var9 529)))
(assert (= ")" (str.at var8 290)))
(assert (= "v" (str.at var42 51)))
(assert (= "K" (str.at var8 572)))
(assert (= "E" (str.at var7 395)))
(assert (= "H" (str.at var38 34)))
(assert (= "\\" (str.at var14 935)))
(assert (= "u" (str.at var17 933)))
(assert (= "H" (str.at var6 184)))
(assert (= "<" (str.at var14 394)))
(assert (= ")" (str.at var44 153)))
(assert (= "p" (str.at var33 338)))
(assert (= "&" (str.at var50 787)))
(assert (= "Q" (str.at var31 224)))
(assert (= "B" (str.at var0 341)))
(assert (= "{" (str.at var15 504)))
(assert (= "J" (str.at var36 214)))
(assert (= "o" (str.at var52 706)))
(assert (= "O" (str.at var40 792)))
(assert (= "," (str.at var20 291)))
(assert (= "l" (str.at var57 313)))
(assert (= "]" (str.at var40 423)))
(assert (= "'" (str.at var37 444)))
(assert (= "`" (str.at var41 830)))
(assert (= "v" (str.at var10 362)))
(assert (= "{" (str.at var4 736)))
(assert (= "Y" (str.at var38 230)))
(assert (= "d" (str.at var55 845)))
(assert (= "{" (str.at var28 586)))
(assert (= "~" (str.at var10 192)))
(assert (= "%" (str.at var36 509)))
(assert (= "T" (str.at var39 478)))
(assert (= "5" (str.at var20 411)))
(assert (= "S" (str.at var12 248)))
(assert (= "V" (str.at var48 524)))
(assert (= "}" (str.at var16 119)))
(assert (= "#" (str.at var25 249)))
(assert (= "S" (str.at var46 39)))
(assert (= "_" (str.at var15 241)))
(assert (= "8" (str.at var5 979)))
(assert (= "T" (str.at var18 57)))
(assert (= "O" (str.at var27 842)))
(assert (= "G" (str.at var40 920)))
(assert (= """" (str.at var18 211)))
(assert (= "'" (str.at var5 938)))
(assert (= "c" (str.at var9 257)))
(assert (= "M" (str.at var35 692)))
(assert (= "-" (str.at var40 175)))
(assert (= "v" (str.at var19 471)))
(assert (= "`" (str.at var39 682)))
(assert (= "j" (str.at var15 867)))
(assert (= "+" (str.at var56 764)))
(assert (= "=" (str.at var34 678)))
(assert (= "7" (str.at var19 271)))
(assert (= "1" (str.at var39 499)))
(assert (= "H" (str.at var55 291)))
(assert (= "a" (str.at var7 295)))
(assert (= "q" (str.at var46 724)))
(assert (= "b" (str.at var7 887)))
(assert (= "K" (str.at var57 629)))
(assert (= "J" (str.at var53 403)))
(assert (= "G" (str.at var56 143)))
(assert (= "L" (str.at var25 755)))
(assert (= "4" (str.at var40 803)))
(assert (= "?" (str.at var12 363)))
(assert (= "Q" (str.at var7 513)))
(assert (= "e" (str.at var39 700)))
(assert (= "x" (str.at var14 27)))
(assert (= "g" (str.at var18 288)))
(assert (= "y" (str.at var40 166)))
(assert (= "C" (str.at var47 49)))
(assert (= "D" (str.at var37 728)))
(assert (= "}" (str.at var47 329)))
(assert (= "=" (str.at var41 434)))
(assert (= "m" (str.at var15 659)))
(assert (= "G" (str.at var7 273)))
(assert (= "0" (str.at var28 442)))
(assert (= "6" (str.at var55 147)))
(assert (= "S" (str.at var11 570)))
(assert (= "," (str.at var41 402)))
(assert (= "=" (str.at var60 235)))
(assert (= "/" (str.at var19 0)))
(assert (= "o" (str.at var24 355)))
(assert (= "&" (str.at var58 750)))
(assert (= "Z" (str.at var44 318)))
(assert (= "&" (str.at var32 242)))
(assert (= "5" (str.at var36 388)))
(assert (= "v" (str.at var36 19)))
(assert (= "K" (str.at var28 888)))
(assert (= "Y" (str.at var30 708)))
(assert (= "." (str.at var60 292)))
(assert (= "g" (str.at var23 596)))
(assert (= "`" (str.at var46 927)))
(assert (= "{" (str.at var48 945)))
(assert (= "F" (str.at var30 342)))
(assert (= "Q" (str.at var14 401)))
(assert (= "d" (str.at var38 714)))
(assert (= "1" (str.at var57 894)))
(assert (= "\\" (str.at var56 737)))
(assert (= "X" (str.at var37 515)))
(assert (= "v" (str.at var25 568)))
(assert (= ":" (str.at var46 735)))
(assert (= "D" (str.at var20 183)))
(assert (= "," (str.at var15 585)))
(assert (= "S" (str.at var46 657)))
(assert (= ":" (str.at var34 111)))
(assert (= "M" (str.at var45 81)))
(assert (= "~" (str.at var9 189)))
(assert (= "h" (str.at var25 626)))
(assert (= "L" (str.at var60 161)))
(assert (= "I" (str.at var46 973)))
(assert (= "V" (str.at var26 713)))
(assert (= "y" (str.at var10 118)))
(assert (= "J" (str.at var17 992)))
(assert (= "%" (str.at var25 508)))
(assert (= "f" (str.at var32 617)))
(assert (= "P" (str.at var33 577)))
(assert (= "R" (str.at var51 268)))
(assert (= "^" (str.at var38 798)))
(assert (= "S" (str.at var30 872)))
(assert (= "N" (str.at var15 301)))
(assert (= "f" (str.at var37 901)))
(assert (= "5" (str.at var36 241)))
(assert (= "?" (str.at var47 739)))
(assert (= "C" (str.at var60 893)))
(assert (= "L" (str.at var24 706)))
(assert (= "k" (str.at var56 419)))
(assert (= "(" (str.at var60 116)))
(assert (= ">" (str.at var13 324)))
(assert (= "g" (str.at var16 202)))
(assert (= "7" (str.at var43 538)))
(assert (= "z" (str.at var10 412)))
(assert (= "@" (str.at var25 378)))
(assert (= "@" (str.at var24 528)))
(assert (= "r" (str.at var37 31)))
(assert (= "F" (str.at var54 30)))
(assert (= "," (str.at var9 160)))
(assert (= "/" (str.at var47 350)))
(assert (= "0" (str.at var37 182)))
(assert (= "&" (str.at var41 683)))
(assert (= "u" (str.at var23 662)))
(assert (= "[" (str.at var1 534)))
(assert (= "a" (str.at var41 321)))
(assert (= "F" (str.at var14 86)))
(assert (= "=" (str.at var46 321)))
(assert (= "_" (str.at var55 60)))
(assert (= "s" (str.at var4 714)))
(assert (= "?" (str.at var18 183)))
(assert (= "*" (str.at var12 733)))
(assert (= "_" (str.at var8 583)))
(assert (= "j" (str.at var40 600)))
(assert (= "8" (str.at var52 734)))
(assert (= "2" (str.at var15 913)))
(assert (= "v" (str.at var57 651)))
(assert (= "j" (str.at var46 708)))
(assert (= "%" (str.at var21 968)))
(assert (= "C" (str.at var25 224)))
(assert (= "f" (str.at var53 697)))
(assert (= "j" (str.at var12 75)))
(assert (= "t" (str.at var56 69)))
(assert (= "R" (str.at var59 390)))
(assert (= "r" (str.at var9 893)))
(assert (= "-" (str.at var19 684)))
(assert (= "e" (str.at var37 659)))
(assert (= "k" (str.at var22 526)))
(assert (= "M" (str.at var16 15)))
(assert (= "k" (str.at var0 736)))
(assert (= "2" (str.at var28 765)))
(assert (= "t" (str.at var10 441)))
(assert (= "h" (str.at var33 997)))
(assert (= "J" (str.at var22 656)))
(assert (= "}" (str.at var3 234)))
(assert (= "~" (str.at var54 558)))
(assert (= "(" (str.at var16 455)))
(assert (= "'" (str.at var10 309)))
(assert (= "^" (str.at var21 163)))
(assert (= "b" (str.at var47 452)))
(assert (= "}" (str.at var3 152)))
(assert (= "Y" (str.at var31 755)))
(assert (= "(" (str.at var20 518)))
(assert (= "J" (str.at var51 621)))
(assert (= ";" (str.at var37 216)))
(assert (= "x" (str.at var3 57)))
(assert (= "+" (str.at var39 66)))
(assert (= "M" (str.at var26 14)))
(assert (= "v" (str.at var53 307)))
(assert (= "z" (str.at var7 592)))
(assert (= "Z" (str.at var11 793)))
(assert (= "k" (str.at var29 840)))
(assert (= "," (str.at var29 221)))
(assert (= "j" (str.at var56 782)))
(assert (= "K" (str.at var56 541)))
(assert (= "r" (str.at var6 704)))
(assert (= "_" (str.at var46 812)))
(assert (= "i" (str.at var37 350)))
(assert (= "`" (str.at var14 794)))
(assert (= "~" (str.at var44 789)))
(assert (= "F" (str.at var27 209)))
(assert (= "g" (str.at var11 455)))
(assert (= "!" (str.at var54 795)))
(assert (= "2" (str.at var9 95)))
(assert (= ":" (str.at var0 141)))
(assert (= "s" (str.at var38 265)))
(assert (= "T" (str.at var17 182)))
(assert (= "," (str.at var50 531)))
(assert (= "p" (str.at var17 269)))
(assert (= "D" (str.at var14 737)))
(assert (= "_" (str.at var23 889)))
(assert (= "i" (str.at var4 669)))
(assert (= ":" (str.at var58 883)))
(assert (= ")" (str.at var2 383)))
(assert (= "1" (str.at var37 711)))
(assert (= "^" (str.at var44 163)))
(assert (= "x" (str.at var31 672)))
(assert (= "a" (str.at var34 54)))
(assert (= "s" (str.at var34 335)))
(assert (= ":" (str.at var31 550)))
(assert (= "b" (str.at var40 890)))
(assert (= "Q" (str.at var17 960)))
(assert (= "!" (str.at var0 347)))
(assert (= "7" (str.at var37 703)))
(assert (= "]" (str.at var38 850)))
(assert (= "`" (str.at var39 496)))
(assert (= "=" (str.at var31 204)))
(assert (= "y" (str.at var32 786)))
(assert (= "Z" (str.at var34 470)))
(assert (= "C" (str.at var60 688)))
(assert (= "<" (str.at var29 16)))
(assert (= "&" (str.at var42 373)))
(assert (= "m" (str.at var54 327)))
(assert (= "@" (str.at var3 192)))
(assert (= "5" (str.at var58 918)))
(assert (= "J" (str.at var58 16)))
(assert (= "n" (str.at var22 585)))
(assert (= "b" (str.at var42 67)))
(assert (= "#" (str.at var4 204)))
(assert (= "5" (str.at var47 760)))
(assert (= "$" (str.at var35 720)))
(assert (= "G" (str.at var26 113)))
(assert (= "x" (str.at var56 352)))
(assert (= "g" (str.at var58 796)))
(assert (= "f" (str.at var17 315)))
(assert (= "q" (str.at var42 223)))
(assert (= "o" (str.at var57 707)))
(assert (= "P" (str.at var15 862)))
(assert (= "V" (str.at var23 566)))
(assert (= "t" (str.at var6 344)))
(assert (= "n" (str.at var44 502)))
(assert (= "A" (str.at var57 674)))
(assert (= "e" (str.at var1 785)))
(assert (= "F" (str.at var58 625)))
(assert (= "&" (str.at var2 143)))
(assert (= "0" (str.at var26 501)))
(assert (= "R" (str.at var14 106)))
(assert (= "w" (str.at var37 534)))
(assert (= "G" (str.at var10 348)))
(assert (= "#" (str.at var0 113)))
(assert (= "D" (str.at var23 528)))
(assert (= "Z" (str.at var17 625)))
(assert (= "O" (str.at var0 772)))
(assert (= "e" (str.at var10 102)))
(assert (= "N" (str.at var10 833)))
(assert (= "_" (str.at var26 105)))
(assert (= "*" (str.at var27 231)))
(assert (= "i" (str.at var1 511)))
(assert (= "E" (str.at var54 761)))
(assert (= "O" (str.at var7 756)))
(assert (= "Z" (str.at var3 682)))
(assert (= "q" (str.at var21 796)))
(assert (= "R" (str.at var58 49)))
(assert (= "A" (str.at var4 968)))
(assert (= "J" (str.at var2 451)))
(assert (= "1" (str.at var18 52)))
(assert (= "G" (str.at var18 939)))
(assert (= "+" (str.at var36 42)))
(assert (= "M" (str.at var58 285)))
(assert (= "6" (str.at var59 31)))
(assert (= "!" (str.at var59 72)))
(assert (= "*" (str.at var47 104)))
(assert (= "^" (str.at var50 975)))
(assert (= "|" (str.at var23 903)))
(assert (= "0" (str.at var19 415)))
(assert (= "c" (str.at var58 642)))
(assert (= "`" (str.at var10 683)))
(assert (= "{" (str.at var30 184)))
(assert (= "o" (str.at var18 571)))
(assert (= "5" (str.at var44 877)))
(assert (= "o" (str.at var29 750)))
(assert (= "n" (str.at var40 498)))
(assert (= "a" (str.at var32 40)))
(assert (= "2" (str.at var45 368)))
(assert (= "T" (str.at var12 670)))
(assert (= "!" (str.at var1 280)))
(assert (= "&" (str.at var9 508)))
(assert (= "H" (str.at var55 861)))
(assert (= "U" (str.at var4 533)))
(assert (= "@" (str.at var42 160)))
(assert (= "=" (str.at var3 613)))
(assert (= "L" (str.at var33 155)))
(assert (= "h" (str.at var13 704)))
(assert (= "f" (str.at var5 257)))
(assert (= "!" (str.at var31 674)))
(assert (= "r" (str.at var58 63)))
(assert (= "t" (str.at var11 476)))
(assert (= "h" (str.at var47 313)))
(assert (= "T" (str.at var47 84)))
(assert (= "2" (str.at var42 338)))
(assert (= "}" (str.at var0 5)))
(assert (= "d" (str.at var30 26)))
(assert (= "'" (str.at var40 383)))
(assert (= "H" (str.at var44 634)))
(assert (= ";" (str.at var33 874)))
(assert (= "8" (str.at var25 421)))
(assert (= "D" (str.at var19 276)))
(assert (= "," (str.at var36 544)))
(assert (= "f" (str.at var52 752)))
(assert (= "\\" (str.at var7 533)))
(assert (= "~" (str.at var39 983)))
(assert (= "C" (str.at var0 467)))
(assert (= "," (str.at var0 762)))
(assert (= "B" (str.at var36 222)))
(assert (= "4" (str.at var38 435)))
(assert (= "L" (str.at var53 818)))
(assert (= "Z" (str.at var42 495)))
(assert (= "'" (str.at var55 429)))
(assert (= "=" (str.at var26 526)))
(assert (= "D" (str.at var34 250)))
(assert (= "J" (str.at var6 950)))
(assert (= ":" (str.at var10 821)))
(assert (= "2" (str.at var51 631)))
(assert (= "4" (str.at var36 89)))
(assert (= "b" (str.at var49 180)))
(assert (= "^" (str.at var16 335)))
(assert (= "k" (str.at var20 52)))
(assert (= "Y" (str.at var53 807)))
(assert (= "5" (str.at var54 90)))
(assert (= "H" (str.at var2 757)))
(assert (= "P" (str.at var9 319)))
(assert (= "F" (str.at var44 943)))
(assert (= "X" (str.at var10 774)))
(assert (= "n" (str.at var14 540)))
(assert (= "O" (str.at var43 813)))
(assert (= "W" (str.at var0 842)))
(assert (= "u" (str.at var17 534)))
(assert (= "8" (str.at var25 227)))
(assert (= "J" (str.at var14 772)))
(assert (= "+" (str.at var37 541)))
(assert (= "?" (str.at var33 501)))
(assert (= "L" (str.at var17 988)))
(assert (= "<" (str.at var0 102)))
(assert (= "V" (str.at var24 427)))
(assert (= "d" (str.at var14 88)))
(assert (= "B" (str.at var26 66)))
(assert (= "v" (str.at var36 638)))
(assert (= "K" (str.at var8 741)))
(assert (= "A" (str.at var60 98)))
(assert (= "R" (str.at var15 707)))
(assert (= "m" (str.at var40 58)))
(assert (= "K" (str.at var20 571)))
(assert (= "_" (str.at var26 778)))
(assert (= "," (str.at var50 467)))
(assert (= "&" (str.at var1 291)))
(assert (= "T" (str.at var18 681)))
(assert (= "s" (str.at var5 868)))
(assert (= "S" (str.at var49 263)))
(assert (= ":" (str.at var56 118)))
(assert (= "#" (str.at var55 302)))
(assert (= "X" (str.at var58 673)))
(assert (= "|" (str.at var46 631)))
(assert (= "O" (str.at var59 787)))
(assert (= "\\" (str.at var36 658)))
(assert (= "-" (str.at var60 102)))
(assert (= "G" (str.at var32 24)))
(assert (= "|" (str.at var52 853)))
(assert (= "_" (str.at var30 390)))
(assert (= "e" (str.at var54 52)))
(assert (= "\\" (str.at var42 536)))
(assert (= "Y" (str.at var51 513)))
(assert (= "{" (str.at var58 310)))
(assert (= "l" (str.at var47 93)))
(assert (= "K" (str.at var50 322)))
(assert (= "e" (str.at var2 716)))
(assert (= "`" (str.at var34 925)))
(assert (= "F" (str.at var9 314)))
(assert (= "b" (str.at var56 518)))
(assert (= "\\" (str.at var27 799)))
(assert (= "7" (str.at var41 582)))
(assert (= "l" (str.at var26 238)))
(assert (= "V" (str.at var12 532)))
(assert (= "q" (str.at var5 296)))
(assert (= "G" (str.at var58 339)))
(assert (= "i" (str.at var3 569)))
(assert (= "q" (str.at var54 97)))
(assert (= "o" (str.at var57 527)))
(assert (= "]" (str.at var50 827)))
(assert (= "l" (str.at var14 380)))
(assert (= "|" (str.at var36 741)))
(assert (= "7" (str.at var8 223)))
(assert (= "y" (str.at var13 985)))
(assert (= "%" (str.at var27 40)))
(assert (= """" (str.at var57 681)))
(assert (= "V" (str.at var3 2)))
(assert (= "l" (str.at var12 535)))
(assert (= "(" (str.at var42 914)))
(assert (= "k" (str.at var45 218)))
(assert (= "(" (str.at var28 767)))
(assert (= "J" (str.at var38 476)))
(assert (= "i" (str.at var42 0)))
(assert (= "e" (str.at var18 845)))
(assert (= "K" (str.at var49 607)))
(assert (= "X" (str.at var7 175)))
(assert (= "w" (str.at var38 458)))
(assert (= "'" (str.at var28 180)))
(assert (= "L" (str.at var16 62)))
(assert (= "(" (str.at var20 888)))
(assert (= "0" (str.at var43 886)))
(assert (= """" (str.at var7 385)))
(assert (= "p" (str.at var46 679)))
(assert (= "W" (str.at var9 211)))
(assert (= "x" (str.at var39 750)))
(assert (= "/" (str.at var16 516)))
(assert (= "n" (str.at var2 652)))
(assert (= "|" (str.at var49 93)))
(assert (= "z" (str.at var12 704)))
(assert (= "]" (str.at var39 192)))
(assert (= "r" (str.at var25 80)))
(assert (= "4" (str.at var5 836)))
(assert (= "G" (str.at var8 62)))
(assert (= "`" (str.at var6 626)))
(assert (= "7" (str.at var57 806)))
(assert (= "<" (str.at var36 275)))
(assert (= "#" (str.at var32 858)))
(assert (= "n" (str.at var18 163)))
(assert (= "W" (str.at var9 20)))
(assert (= "&" (str.at var21 414)))
(assert (= "4" (str.at var32 979)))
(assert (= "~" (str.at var5 206)))
(assert (= "j" (str.at var30 903)))
(assert (= "@" (str.at var44 600)))
(assert (= "0" (str.at var60 208)))
(assert (= "N" (str.at var51 831)))
(assert (= "1" (str.at var41 572)))
(assert (= ";" (str.at var26 467)))
(assert (= "g" (str.at var47 908)))
(assert (= ">" (str.at var60 348)))
(assert (= "C" (str.at var9 515)))
(assert (= "j" (str.at var21 980)))
(assert (= "n" (str.at var47 856)))
(assert (= "F" (str.at var20 638)))
(assert (= "R" (str.at var7 40)))
(assert (= "G" (str.at var54 144)))
(assert (= "z" (str.at var7 415)))
(assert (= "e" (str.at var49 427)))
(assert (= "Z" (str.at var12 262)))
(assert (= "=" (str.at var32 969)))
(assert (= "S" (str.at var34 14)))
(assert (= "j" (str.at var17 571)))
(assert (= "u" (str.at var37 445)))
(assert (= "6" (str.at var40 574)))
(assert (= "y" (str.at var12 364)))
(assert (= "G" (str.at var41 620)))
(assert (= "M" (str.at var12 591)))
(assert (= "P" (str.at var37 521)))
(assert (= "#" (str.at var50 949)))
(assert (= ":" (str.at var60 573)))
(assert (= "k" (str.at var20 779)))
(assert (= ")" (str.at var2 460)))
(assert (= "i" (str.at var0 1000)))
(assert (= "5" (str.at var47 185)))
(assert (= "*" (str.at var59 95)))
(assert (= "t" (str.at var32 922)))
(assert (= "v" (str.at var42 87)))
(assert (= "!" (str.at var6 549)))
(assert (= "F" (str.at var23 17)))
(assert (= "z" (str.at var51 32)))
(assert (= "h" (str.at var0 995)))
(assert (= "+" (str.at var13 582)))
(assert (= "l" (str.at var27 795)))
(assert (= "S" (str.at var23 326)))
(assert (= "p" (str.at var51 887)))
(assert (= "`" (str.at var40 725)))
(assert (= ":" (str.at var34 891)))
(assert (= "Y" (str.at var1 220)))
(assert (= "C" (str.at var52 49)))
(assert (= "h" (str.at var40 224)))
(assert (= "?" (str.at var23 224)))
(assert (= "+" (str.at var11 731)))
(assert (= "5" (str.at var45 912)))
(assert (= "q" (str.at var40 310)))
(assert (= "p" (str.at var47 763)))
(assert (= "." (str.at var25 597)))
(assert (= "?" (str.at var54 738)))
(assert (= "4" (str.at var27 986)))
(assert (= "M" (str.at var8 88)))
(assert (= ")" (str.at var43 365)))
(assert (= "d" (str.at var1 597)))
(assert (= "A" (str.at var60 536)))
(assert (= "c" (str.at var54 256)))
(assert (= "K" (str.at var10 266)))
(assert (= "f" (str.at var41 209)))
(assert (= "b" (str.at var5 188)))
(assert (= "!" (str.at var52 580)))
(assert (= "$" (str.at var57 739)))
(assert (= "*" (str.at var28 598)))
(assert (= "F" (str.at var0 699)))
(assert (= "f" (str.at var60 775)))
(assert (= ")" (str.at var33 534)))
(assert (= "a" (str.at var36 50)))
(assert (= "g" (str.at var52 3)))
(assert (= "r" (str.at var33 483)))
(assert (= "E" (str.at var38 109)))
(assert (= ";" (str.at var54 468)))
(assert (= "O" (str.at var33 864)))
(assert (= "}" (str.at var42 340)))
(assert (= "&" (str.at var36 536)))
(assert (= "H" (str.at var45 302)))
(assert (= ")" (str.at var51 65)))
(assert (= "r" (str.at var32 124)))
(assert (= "0" (str.at var48 785)))
(assert (= "G" (str.at var7 400)))
(assert (= "J" (str.at var48 499)))
(assert (= "3" (str.at var56 74)))
(assert (= ";" (str.at var4 206)))
(assert (= "K" (str.at var42 378)))
(assert (= "{" (str.at var39 37)))
(assert (= "s" (str.at var30 368)))
(assert (= "%" (str.at var34 623)))
(assert (= "Y" (str.at var59 763)))
(assert (= ":" (str.at var4 365)))
(assert (= "g" (str.at var39 539)))
(assert (= "," (str.at var6 322)))
(assert (= "i" (str.at var43 769)))
(assert (= "d" (str.at var26 748)))
(assert (= "1" (str.at var19 571)))
(assert (= "b" (str.at var3 270)))
(assert (= ";" (str.at var60 385)))
(assert (= "2" (str.at var10 153)))
(assert (= "f" (str.at var17 814)))
(assert (= "r" (str.at var43 49)))
(assert (= "t" (str.at var57 902)))
(assert (= "S" (str.at var38 547)))
(assert (= "0" (str.at var6 409)))
(assert (= ")" (str.at var43 436)))
(check-sat)
(get-model)